p wcnf 177 209 210 
1 155 -61 0 
1 -48 140 0 
1 92 62 0 
1 124 -89 0 
1 78 72 0 
1 105 -39 0 
1 81 -56 0 
1 142 128 0 
1 -135 51 0 
1 -146 81 0 
1 -47 147 0 
1 57 7 0 
1 -10 -45 0 
1 -16 -9 0 
1 -117 -65 0 
1 73 -15 0 
1 166 -75 0 
1 62 58 0 
1 52 44 0 
1 -150 -92 0 
1 77 -121 0 
1 -6 -135 0 
1 140 46 0 
1 -62 128 0 
1 119 111 0 
1 47 -62 0 
1 103 119 0 
1 -172 91 0 
1 91 -7 0 
1 -64 -107 0 
1 -62 29 0 
1 117 22 0 
1 51 -102 0 
1 6 -122 0 
1 -150 -172 0 
1 111 -142 0 
1 17 15 0 
1 142 108 0 
1 115 -26 0 
1 115 -174 0 
1 170 111 0 
1 78 50 0 
1 103 -146 0 
1 53 146 0 
1 -104 126 0 
1 -100 -81 0 
1 31 -28 0 
1 -167 -160 0 
1 151 85 0 
1 -7 81 0 
1 -82 74 0 
1 76 -6 0 
1 153 -20 0 
1 -70 14 0 
1 171 -161 0 
1 52 44 0 
1 28 52 0 
1 -9 81 0 
1 130 67 0 
1 69 43 0 
1 112 113 0 
1 -57 -4 0 
1 -51 166 0 
1 162 5 0 
1 172 -3 0 
1 2 -135 0 
1 -49 140 0 
1 -58 98 0 
1 -167 27 0 
1 164 -78 0 
1 77 10 0 
1 172 45 0 
1 20 168 0 
1 -59 78 0 
1 -65 88 0 
1 39 -31 0 
1 -35 67 0 
1 -65 42 0 
1 86 94 0 
1 64 -69 0 
1 -73 112 0 
1 -107 -160 0 
1 -53 -143 0 
1 175 -80 0 
1 -130 131 0 
1 6 -31 0 
1 87 -49 0 
1 92 138 0 
1 54 109 0 
1 -150 -92 0 
1 -76 171 0 
1 53 59 0 
1 23 82 0 
1 -101 -158 0 
1 -57 -103 0 
1 137 -10 0 
1 24 13 0 
1 26 155 0 
1 -100 71 0 
1 165 94 0 
1 -148 132 0 
1 117 -13 0 
1 25 112 0 
1 -85 35 0 
1 -137 -133 0 
1 124 12 0 
1 65 14 0 
1 -66 -60 0 
1 -131 -98 0 
1 -13 -92 0 
1 123 -97 0 
1 -65 -177 0 
1 102 158 0 
1 -76 126 0 
1 -65 40 0 
1 -57 -167 0 
1 -22 -115 0 
1 -57 134 0 
1 106 -64 0 
1 150 -172 0 
1 -40 -37 0 
1 -55 68 0 
1 -156 -55 0 
1 87 -12 0 
1 79 -175 0 
1 19 -94 0 
1 153 134 0 
1 91 97 0 
1 97 121 0 
1 85 -6 0 
1 87 -106 0 
1 -176 -131 0 
1 109 -110 0 
1 -138 163 0 
1 87 80 0 
1 -89 -51 0 
1 84 54 0 
1 116 -135 0 
1 167 -30 0 
1 -81 32 0 
1 -176 30 0 
1 -1 75 0 
1 126 113 0 
1 -99 110 0 
1 87 135 0 
1 32 44 0 
1 -118 122 0 
1 153 66 0 
1 -109 106 0 
1 150 -119 0 
1 -99 177 0 
1 -146 39 0 
1 -174 31 0 
1 64 -131 0 
1 -150 147 0 
1 85 149 0 
1 -112 10 0 
1 -18 -79 0 
1 -47 95 0 
1 124 156 0 
1 4 129 0 
1 -58 87 0 
1 -5 74 0 
1 -73 -52 0 
1 104 89 0 
1 86 103 0 
1 156 177 0 
1 -50 45 0 
1 98 132 0 
1 -145 -63 0 
1 173 147 0 
1 -172 -56 0 
1 -102 87 0 
1 140 -124 0 
1 -82 127 0 
1 -130 -38 0 
1 -87 -81 0 
1 -151 30 0 
1 41 164 0 
1 -79 -162 0 
1 -4 -47 0 
1 44 -160 0 
1 -95 22 0 
1 146 -16 0 
1 134 -98 0 
1 72 -95 0 
1 -85 -52 0 
1 -75 2 0 
1 159 -19 0 
1 -149 15 0 
1 176 45 0 
1 -115 10 0 
1 -60 25 0 
1 55 -105 0 
1 -155 100 0 
1 -141 63 0 
1 -155 25 0 
1 176 -93 0 
1 105 -149 0 
1 147 -75 0 
1 -70 -103 0 
1 -27 -145 0 
1 -104 -64 0 
1 130 157 0 
1 -102 -133 0 
1 163 -105 0 
1 -101 -20 0 
1 -82 129 0 
1 141 -146 0 
